Running for instance ./models/r211.txt
Generating routes...
Execution time:  0.10929445  minutes
Academic license - for non-commercial use only
Warning: constraint name "Cliente esta na rota" has a space
Optimize a model with 26 rows, 5000 columns and 56567 nonzeros
Variable types: 0 continuous, 5000 integer (0 binary)
Coefficient statistics:
  Matrix range     [1e+00, 1e+00]
  Objective range  [6e+01, 5e+02]
  Bounds range     [1e+00, 1e+00]
  RHS range        [1e+00, 2e+01]
Found heuristic solution: objective 1379.3069526
Presolve removed 4 rows and 18 columns
Presolve time: 0.03s
Presolved: 22 rows, 4982 columns, 47831 nonzeros
Variable types: 0 continuous, 4982 integer (4982 binary)

Root relaxation: objective 4.957921e+02, 73 iterations, 0.01 seconds

    Nodes    |    Current Node    |     Objective Bounds      |     Work
 Expl Unexpl |  Obj  Depth IntInf | Incumbent    BestBd   Gap | It/Node Time

     0     0  495.79205    0   18 1379.30695  495.79205  64.1%     -    0s
H    0     0                     719.0290952  495.79205  31.0%     -    0s
H    0     0                     506.8458502  495.79205  2.18%     -    0s
     0     0  501.14327    0    4  506.84585  501.14327  1.13%     -    0s

Cutting planes:
  Zero half: 1

Explored 1 nodes (88 simplex iterations) in 0.09 seconds
Thread count was 8 (of 8 available processors)

Solution count 3: 506.846 719.029 1379.31 

Optimal solution found (tolerance 1.00e-04)
Best objective 5.068458501881e+02, best bound 5.068458501881e+02, gap 0.0000%
21 12 2 15 23 22 16 14 5 11 7 18 8
6 5 17 8 10 20 1 9 3 24 25 4
Distance: 506.845850188
Execution time:  0.116804066667  minutes
